(set-info :smt-lib-version 2.6)
(set-logic QF_NIA)
(set-info :source |AProve team, see http://aprove.informatik.rwth-aachen.de/, submitted for SMT-COMP 2014|)
(set-info :category "industrial")
(set-info :status sat)
(declare-fun b__101 () Int)
(declare-fun a__2 () Int)
(declare-fun a__7 () Int)
(declare-fun a__15 () Int)
(declare-fun a__6 () Int)
(declare-fun a__9 () Int)
(declare-fun a__14 () Int)
(declare-fun a__48 () Int)
(declare-fun a__35 () Int)
(declare-fun a__37 () Int)
(declare-fun b__102 () Int)
(declare-fun a__80 () Int)
(declare-fun a__77 () Int)
(declare-fun a__64 () Int)
(declare-fun a__90 () Int)
(declare-fun a__47 () Int)
(declare-fun a__54 () Int)
(declare-fun a__50 () Int)
(declare-fun a__41 () Int)
(declare-fun a__60 () Int)
(declare-fun a__74 () Int)
(declare-fun a__87 () Int)
(declare-fun a__96 () Int)
(declare-fun a__93 () Int)
(declare-fun a__70 () Int)
(declare-fun a__83 () Int)
(declare-fun b__103 () Int)
(declare-fun b__104 () Int)
(declare-fun b__105 () Int)
(declare-fun a__4 () Int)
(declare-fun a__11 () Int)
(declare-fun a__10 () Int)
(declare-fun a__16 () Int)
(declare-fun a__17 () Int)
(declare-fun a__18 () Int)
(declare-fun a__19 () Int)
(declare-fun a__20 () Int)
(declare-fun a__22 () Int)
(declare-fun a__23 () Int)
(declare-fun a__21 () Int)
(declare-fun a__3 () Int)
(declare-fun a__24 () Int)
(declare-fun a__25 () Int)
(declare-fun a__26 () Int)
(declare-fun a__29 () Int)
(declare-fun a__30 () Int)
(declare-fun a__27 () Int)
(declare-fun a__28 () Int)
(declare-fun a__31 () Int)
(declare-fun a__32 () Int)
(declare-fun a__33 () Int)
(declare-fun a__8 () Int)
(declare-fun a__12 () Int)
(declare-fun a__34 () Int)
(declare-fun a__36 () Int)
(declare-fun a__38 () Int)
(declare-fun a__39 () Int)
(declare-fun a__40 () Int)
(declare-fun a__44 () Int)
(declare-fun a__45 () Int)
(declare-fun a__42 () Int)
(declare-fun a__43 () Int)
(declare-fun a__46 () Int)
(declare-fun a__49 () Int)
(declare-fun a__51 () Int)
(declare-fun a__52 () Int)
(declare-fun a__53 () Int)
(declare-fun a__55 () Int)
(declare-fun a__56 () Int)
(declare-fun a__57 () Int)
(declare-fun a__58 () Int)
(declare-fun a__59 () Int)
(declare-fun a__61 () Int)
(declare-fun a__62 () Int)
(declare-fun a__63 () Int)
(declare-fun a__67 () Int)
(declare-fun a__68 () Int)
(declare-fun a__65 () Int)
(declare-fun a__66 () Int)
(declare-fun a__69 () Int)
(declare-fun a__71 () Int)
(declare-fun a__72 () Int)
(declare-fun a__73 () Int)
(declare-fun a__75 () Int)
(declare-fun a__76 () Int)
(declare-fun a__78 () Int)
(declare-fun a__79 () Int)
(declare-fun a__81 () Int)
(declare-fun a__82 () Int)
(declare-fun a__84 () Int)
(declare-fun a__85 () Int)
(declare-fun a__86 () Int)
(declare-fun a__88 () Int)
(declare-fun a__89 () Int)
(declare-fun a__91 () Int)
(declare-fun a__92 () Int)
(declare-fun a__94 () Int)
(declare-fun a__95 () Int)
(declare-fun a__97 () Int)
(declare-fun a__98 () Int)
(declare-fun a__99 () Int)
(declare-fun a__100 () Int)
(declare-fun a__1 () Int)
(declare-fun a__5 () Int)
(declare-fun a__13 () Int)
(assert (and (>= (+ 1 (* (- 0 1) b__101)) 0) (= (+ (* b__101 a__2) (* (- 0 1) a__2)) 0) (= (+ (* b__101 a__7) (* (- 0 1) a__7)) 0) (= (+ (* b__101 a__15) (* (- 0 1) a__15)) 0) (= (+ (* b__101 a__6 a__9) (* (- 0 1) (* a__6 a__9))) 0) (= (+ (* b__101 a__14 a__9) (* (- 0 1) (* a__14 a__9))) 0) (= (+ (* b__101 a__6 a__48 a__35) (* (- 0 1) (* a__6 a__48 a__35))) 0) (= (+ (* b__101 a__6 a__35 a__37) (* (- 0 1) (* a__6 a__35 a__37))) 0) (= (+ (* b__101 a__14 a__48 a__35) (* (- 0 1) (* a__14 a__48 a__35))) 0) (= (+ (* b__101 a__14 a__35 a__37) (* (- 0 1) (* a__14 a__35 a__37))) 0) (>= (+ 1 (* (- 0 1) b__102)) 0) (= (+ (* b__102 a__6) (* (- 0 1) a__6)) 0) (= (+ (* b__102 a__14) (* (- 0 1) a__14)) 0) (= (+ (* b__102 a__2 a__80) (* (- 0 1) (* a__2 a__80))) 0) (= (+ (* b__102 a__7 a__80) (* (- 0 1) (* a__7 a__80))) 0) (= (+ (* b__102 a__15 a__80) (* (- 0 1) (* a__15 a__80))) 0) (= (+ (* b__102 a__2 a__77 a__64) (* (- 0 1) (* a__2 a__77 a__64))) 0) (= (+ (* b__102 a__2 a__90 a__64) (* (- 0 1) (* a__2 a__90 a__64))) 0) (= (+ (* b__102 a__2 a__47 a__54) (* (- 0 1) (* a__2 a__47 a__54))) 0) (= (+ (* b__102 a__2 a__50 a__41) (* (- 0 1) (* a__2 a__50 a__41))) 0) (= (+ (* b__102 a__2 a__60 a__41) (* (- 0 1) (* a__2 a__60 a__41))) 0) (= (+ (* b__102 a__77 a__7 a__64) (* (- 0 1) (* a__77 a__7 a__64))) 0) (= (+ (* b__102 a__77 a__15 a__64) (* (- 0 1) (* a__77 a__15 a__64))) 0) (= (+ (* b__102 a__7 a__90 a__64) (* (- 0 1) (* a__7 a__90 a__64))) 0) (= (+ (* b__102 a__7 a__47 a__54) (* (- 0 1) (* a__7 a__47 a__54))) 0) (= (+ (* b__102 a__7 a__50 a__41) (* (- 0 1) (* a__7 a__50 a__41))) 0) (= (+ (* b__102 a__7 a__60 a__41) (* (- 0 1) (* a__7 a__60 a__41))) 0) (= (+ (* b__102 a__90 a__15 a__64) (* (- 0 1) (* a__90 a__15 a__64))) 0) (= (+ (* b__102 a__15 a__47 a__54) (* (- 0 1) (* a__15 a__47 a__54))) 0) (= (+ (* b__102 a__15 a__50 a__41) (* (- 0 1) (* a__15 a__50 a__41))) 0) (= (+ (* b__102 a__15 a__60 a__41) (* (- 0 1) (* a__15 a__60 a__41))) 0) (= (+ (* b__102 a__2 a__74 a__47 a__64) (* (- 0 1) (* a__2 a__74 a__47 a__64))) 0) (= (+ (* b__102 a__2 a__87 a__47 a__64) (* (- 0 1) (* a__2 a__87 a__47 a__64))) 0) (= (+ (* b__102 a__2 a__96 a__50 a__64) (* (- 0 1) (* a__2 a__96 a__50 a__64))) 0) (= (+ (* b__102 a__2 a__96 a__60 a__64) (* (- 0 1) (* a__2 a__96 a__60 a__64))) 0) (= (+ (* b__102 a__2 a__77 a__93 a__41) (* (- 0 1) (* a__2 a__77 a__93 a__41))) 0) (= (+ (* b__102 a__2 a__90 a__93 a__41) (* (- 0 1) (* a__2 a__90 a__93 a__41))) 0) (= (+ (* b__102 a__2 a__47 a__70 a__41) (* (- 0 1) (* a__2 a__47 a__70 a__41))) 0) (= (+ (* b__102 a__2 a__47 a__83 a__41) (* (- 0 1) (* a__2 a__47 a__83 a__41))) 0) (= (+ (* b__102 a__74 a__7 a__47 a__64) (* (- 0 1) (* a__74 a__7 a__47 a__64))) 0) (= (+ (* b__102 a__74 a__15 a__47 a__64) (* (- 0 1) (* a__74 a__15 a__47 a__64))) 0) (= (+ (* b__102 a__87 a__7 a__47 a__64) (* (- 0 1) (* a__87 a__7 a__47 a__64))) 0) (= (+ (* b__102 a__87 a__15 a__47 a__64) (* (- 0 1) (* a__87 a__15 a__47 a__64))) 0) (= (+ (* b__102 a__96 a__7 a__50 a__64) (* (- 0 1) (* a__96 a__7 a__50 a__64))) 0) (= (+ (* b__102 a__96 a__7 a__60 a__64) (* (- 0 1) (* a__96 a__7 a__60 a__64))) 0) (= (+ (* b__102 a__96 a__15 a__50 a__64) (* (- 0 1) (* a__96 a__15 a__50 a__64))) 0) (= (+ (* b__102 a__96 a__15 a__60 a__64) (* (- 0 1) (* a__96 a__15 a__60 a__64))) 0) (= (+ (* b__102 a__77 a__7 a__93 a__41) (* (- 0 1) (* a__77 a__7 a__93 a__41))) 0) (= (+ (* b__102 a__77 a__15 a__93 a__41) (* (- 0 1) (* a__77 a__15 a__93 a__41))) 0) (= (+ (* b__102 a__7 a__90 a__93 a__41) (* (- 0 1) (* a__7 a__90 a__93 a__41))) 0) (= (+ (* b__102 a__7 a__47 a__70 a__41) (* (- 0 1) (* a__7 a__47 a__70 a__41))) 0) (= (+ (* b__102 a__7 a__47 a__83 a__41) (* (- 0 1) (* a__7 a__47 a__83 a__41))) 0) (= (+ (* b__102 a__90 a__15 a__93 a__41) (* (- 0 1) (* a__90 a__15 a__93 a__41))) 0) (= (+ (* b__102 a__15 a__47 a__70 a__41) (* (- 0 1) (* a__15 a__47 a__70 a__41))) 0) (= (+ (* b__102 a__15 a__47 a__83 a__41) (* (- 0 1) (* a__15 a__47 a__83 a__41))) 0) (= (+ (* b__102 a__2 a__74 a__47 a__93 a__41) (* (- 0 1) (* a__2 a__74 a__47 a__93 a__41))) 0) (= (+ (* b__102 a__2 a__87 a__47 a__93 a__41) (* (- 0 1) (* a__2 a__87 a__47 a__93 a__41))) 0) (= (+ (* b__102 a__2 a__96 a__47 a__70 a__64) (* (- 0 1) (* a__2 a__96 a__47 a__70 a__64))) 0) (= (+ (* b__102 a__2 a__96 a__47 a__83 a__64) (* (- 0 1) (* a__2 a__96 a__47 a__83 a__64))) 0) (= (+ (* b__102 a__74 a__7 a__47 a__93 a__41) (* (- 0 1) (* a__74 a__7 a__47 a__93 a__41))) 0) (= (+ (* b__102 a__74 a__15 a__47 a__93 a__41) (* (- 0 1) (* a__74 a__15 a__47 a__93 a__41))) 0) (= (+ (* b__102 a__87 a__7 a__47 a__93 a__41) (* (- 0 1) (* a__87 a__7 a__47 a__93 a__41))) 0) (= (+ (* b__102 a__87 a__15 a__47 a__93 a__41) (* (- 0 1) (* a__87 a__15 a__47 a__93 a__41))) 0) (= (+ (* b__102 a__96 a__7 a__47 a__70 a__64) (* (- 0 1) (* a__96 a__7 a__47 a__70 a__64))) 0) (= (+ (* b__102 a__96 a__7 a__47 a__83 a__64) (* (- 0 1) (* a__96 a__7 a__47 a__83 a__64))) 0) (= (+ (* b__102 a__96 a__15 a__47 a__70 a__64) (* (- 0 1) (* a__96 a__15 a__47 a__70 a__64))) 0) (= (+ (* b__102 a__96 a__15 a__47 a__83 a__64) (* (- 0 1) (* a__96 a__15 a__47 a__83 a__64))) 0) (>= (+ 1 (* (- 0 1) b__103)) 0) (= (+ (* b__103 a__2 a__54) (* (- 0 1) (* a__2 a__54))) 0) (= (+ (* b__103 a__6 a__35) (* (- 0 1) (* a__6 a__35))) 0) (= (+ (* b__103 a__7 a__54) (* (- 0 1) (* a__7 a__54))) 0) (= (+ (* b__103 a__14 a__35) (* (- 0 1) (* a__14 a__35))) 0) (= (+ (* b__103 a__15 a__54) (* (- 0 1) (* a__15 a__54))) 0) (= (+ (* b__103 a__2 a__74 a__64) (* (- 0 1) (* a__2 a__74 a__64))) 0) (= (+ (* b__103 a__2 a__87 a__64) (* (- 0 1) (* a__2 a__87 a__64))) 0) (= (+ (* b__103 a__2 a__35 a__80) (* (- 0 1) (* a__2 a__35 a__80))) 0) (= (+ (* b__103 a__2 a__70 a__41) (* (- 0 1) (* a__2 a__70 a__41))) 0) (= (+ (* b__103 a__2 a__83 a__41) (* (- 0 1) (* a__2 a__83 a__41))) 0) (= (+ (* b__103 a__74 a__7 a__64) (* (- 0 1) (* a__74 a__7 a__64))) 0) (= (+ (* b__103 a__74 a__15 a__64) (* (- 0 1) (* a__74 a__15 a__64))) 0) (= (+ (* b__103 a__87 a__7 a__64) (* (- 0 1) (* a__87 a__7 a__64))) 0) (= (+ (* b__103 a__87 a__15 a__64) (* (- 0 1) (* a__87 a__15 a__64))) 0) (= (+ (* b__103 a__6 a__54 a__9) (* (- 0 1) (* a__6 a__54 a__9))) 0) (= (+ (* b__103 a__7 a__35 a__80) (* (- 0 1) (* a__7 a__35 a__80))) 0) (= (+ (* b__103 a__7 a__70 a__41) (* (- 0 1) (* a__7 a__70 a__41))) 0) (= (+ (* b__103 a__7 a__83 a__41) (* (- 0 1) (* a__7 a__83 a__41))) 0) (= (+ (* b__103 a__14 a__54 a__9) (* (- 0 1) (* a__14 a__54 a__9))) 0) (= (+ (* b__103 a__15 a__35 a__80) (* (- 0 1) (* a__15 a__35 a__80))) 0) (= (+ (* b__103 a__15 a__70 a__41) (* (- 0 1) (* a__15 a__70 a__41))) 0) (= (+ (* b__103 a__15 a__83 a__41) (* (- 0 1) (* a__15 a__83 a__41))) 0) (= (+ (* b__103 a__2 a__74 a__93 a__41) (* (- 0 1) (* a__2 a__74 a__93 a__41))) 0) (= (+ (* b__103 a__2 a__87 a__93 a__41) (* (- 0 1) (* a__2 a__87 a__93 a__41))) 0) (= (+ (* b__103 a__2 a__96 a__70 a__64) (* (- 0 1) (* a__2 a__96 a__70 a__64))) 0) (= (+ (* b__103 a__2 a__96 a__83 a__64) (* (- 0 1) (* a__2 a__96 a__83 a__64))) 0) (= (+ (* b__103 a__2 a__77 a__35 a__64) (* (- 0 1) (* a__2 a__77 a__35 a__64))) 0) (= (+ (* b__103 a__2 a__90 a__35 a__64) (* (- 0 1) (* a__2 a__90 a__35 a__64))) 0) (= (+ (* b__103 a__2 a__35 a__50 a__41) (* (- 0 1) (* a__2 a__35 a__50 a__41))) 0) (= (+ (* b__103 a__2 a__35 a__60 a__41) (* (- 0 1) (* a__2 a__35 a__60 a__41))) 0) (= (+ (* b__103 a__74 a__6 a__64 a__9) (* (- 0 1) (* a__74 a__6 a__64 a__9))) 0) (= (+ (* b__103 a__74 a__7 a__93 a__41) (* (- 0 1) (* a__74 a__7 a__93 a__41))) 0) (= (+ (* b__103 a__74 a__14 a__64 a__9) (* (- 0 1) (* a__74 a__14 a__64 a__9))) 0) (= (+ (* b__103 a__74 a__15 a__93 a__41) (* (- 0 1) (* a__74 a__15 a__93 a__41))) 0) (= (+ (* b__103 a__87 a__6 a__64 a__9) (* (- 0 1) (* a__87 a__6 a__64 a__9))) 0) (= (+ (* b__103 a__87 a__7 a__93 a__41) (* (- 0 1) (* a__87 a__7 a__93 a__41))) 0) (= (+ (* b__103 a__87 a__14 a__64 a__9) (* (- 0 1) (* a__87 a__14 a__64 a__9))) 0) (= (+ (* b__103 a__87 a__15 a__93 a__41) (* (- 0 1) (* a__87 a__15 a__93 a__41))) 0) (= (+ (* b__103 a__96 a__7 a__70 a__64) (* (- 0 1) (* a__96 a__7 a__70 a__64))) 0) (= (+ (* b__103 a__96 a__7 a__83 a__64) (* (- 0 1) (* a__96 a__7 a__83 a__64))) 0) (= (+ (* b__103 a__96 a__15 a__70 a__64) (* (- 0 1) (* a__96 a__15 a__70 a__64))) 0) (= (+ (* b__103 a__96 a__15 a__83 a__64) (* (- 0 1) (* a__96 a__15 a__83 a__64))) 0) (= (+ (* b__103 a__77 a__7 a__35 a__64) (* (- 0 1) (* a__77 a__7 a__35 a__64))) 0) (= (+ (* b__103 a__77 a__15 a__35 a__64) (* (- 0 1) (* a__77 a__15 a__35 a__64))) 0) (= (+ (* b__103 a__6 a__70 a__41 a__9) (* (- 0 1) (* a__6 a__70 a__41 a__9))) 0) (= (+ (* b__103 a__6 a__83 a__41 a__9) (* (- 0 1) (* a__6 a__83 a__41 a__9))) 0) (= (+ (* b__103 a__7 a__90 a__35 a__64) (* (- 0 1) (* a__7 a__90 a__35 a__64))) 0) (= (+ (* b__103 a__7 a__35 a__50 a__41) (* (- 0 1) (* a__7 a__35 a__50 a__41))) 0) (= (+ (* b__103 a__7 a__35 a__60 a__41) (* (- 0 1) (* a__7 a__35 a__60 a__41))) 0) (= (+ (* b__103 a__90 a__15 a__35 a__64) (* (- 0 1) (* a__90 a__15 a__35 a__64))) 0) (= (+ (* b__103 a__14 a__70 a__41 a__9) (* (- 0 1) (* a__14 a__70 a__41 a__9))) 0) (= (+ (* b__103 a__14 a__83 a__41 a__9) (* (- 0 1) (* a__14 a__83 a__41 a__9))) 0) (= (+ (* b__103 a__15 a__35 a__50 a__41) (* (- 0 1) (* a__15 a__35 a__50 a__41))) 0) (= (+ (* b__103 a__15 a__35 a__60 a__41) (* (- 0 1) (* a__15 a__35 a__60 a__41))) 0) (= (+ (* b__103 a__2 a__96 a__35 a__50 a__64) (* (- 0 1) (* a__2 a__96 a__35 a__50 a__64))) 0) (= (+ (* b__103 a__2 a__96 a__35 a__60 a__64) (* (- 0 1) (* a__2 a__96 a__35 a__60 a__64))) 0) (= (+ (* b__103 a__2 a__77 a__35 a__93 a__41) (* (- 0 1) (* a__2 a__77 a__35 a__93 a__41))) 0) (= (+ (* b__103 a__2 a__90 a__35 a__93 a__41) (* (- 0 1) (* a__2 a__90 a__35 a__93 a__41))) 0) (= (+ (* b__103 a__74 a__6 a__93 a__41 a__9) (* (- 0 1) (* a__74 a__6 a__93 a__41 a__9))) 0) (= (+ (* b__103 a__74 a__14 a__93 a__41 a__9) (* (- 0 1) (* a__74 a__14 a__93 a__41 a__9))) 0) (= (+ (* b__103 a__87 a__6 a__93 a__41 a__9) (* (- 0 1) (* a__87 a__6 a__93 a__41 a__9))) 0) (= (+ (* b__103 a__87 a__14 a__93 a__41 a__9) (* (- 0 1) (* a__87 a__14 a__93 a__41 a__9))) 0) (= (+ (* b__103 a__96 a__6 a__70 a__64 a__9) (* (- 0 1) (* a__96 a__6 a__70 a__64 a__9))) 0) (= (+ (* b__103 a__96 a__6 a__83 a__64 a__9) (* (- 0 1) (* a__96 a__6 a__83 a__64 a__9))) 0) (= (+ (* b__103 a__96 a__7 a__35 a__50 a__64) (* (- 0 1) (* a__96 a__7 a__35 a__50 a__64))) 0) (= (+ (* b__103 a__96 a__7 a__35 a__60 a__64) (* (- 0 1) (* a__96 a__7 a__35 a__60 a__64))) 0) (= (+ (* b__103 a__96 a__14 a__70 a__64 a__9) (* (- 0 1) (* a__96 a__14 a__70 a__64 a__9))) 0) (= (+ (* b__103 a__96 a__14 a__83 a__64 a__9) (* (- 0 1) (* a__96 a__14 a__83 a__64 a__9))) 0) (= (+ (* b__103 a__96 a__15 a__35 a__50 a__64) (* (- 0 1) (* a__96 a__15 a__35 a__50 a__64))) 0) (= (+ (* b__103 a__96 a__15 a__35 a__60 a__64) (* (- 0 1) (* a__96 a__15 a__35 a__60 a__64))) 0) (= (+ (* b__103 a__77 a__7 a__35 a__93 a__41) (* (- 0 1) (* a__77 a__7 a__35 a__93 a__41))) 0) (= (+ (* b__103 a__77 a__15 a__35 a__93 a__41) (* (- 0 1) (* a__77 a__15 a__35 a__93 a__41))) 0) (= (+ (* b__103 a__7 a__90 a__35 a__93 a__41) (* (- 0 1) (* a__7 a__90 a__35 a__93 a__41))) 0) (= (+ (* b__103 a__90 a__15 a__35 a__93 a__41) (* (- 0 1) (* a__90 a__15 a__35 a__93 a__41))) 0) (>= (+ 1 (* (- 0 1) b__104)) 0) (= (+ (* b__104 a__2 a__41) (* (- 0 1) (* a__2 a__41))) 0) (= (+ (* b__104 a__7 a__41) (* (- 0 1) (* a__7 a__41))) 0) (= (+ (* b__104 a__15 a__41) (* (- 0 1) (* a__15 a__41))) 0) (= (+ (* b__104 a__2 a__96 a__64) (* (- 0 1) (* a__2 a__96 a__64))) 0) (= (+ (* b__104 a__96 a__7 a__64) (* (- 0 1) (* a__96 a__7 a__64))) 0) (= (+ (* b__104 a__96 a__15 a__64) (* (- 0 1) (* a__96 a__15 a__64))) 0) (= (+ (* b__104 a__6 a__41 a__9) (* (- 0 1) (* a__6 a__41 a__9))) 0) (= (+ (* b__104 a__14 a__41 a__9) (* (- 0 1) (* a__14 a__41 a__9))) 0) (= (+ (* b__104 a__96 a__6 a__64 a__9) (* (- 0 1) (* a__96 a__6 a__64 a__9))) 0) (= (+ (* b__104 a__96 a__14 a__64 a__9) (* (- 0 1) (* a__96 a__14 a__64 a__9))) 0) (= (+ (* b__104 a__6 a__48 a__35 a__41) (* (- 0 1) (* a__6 a__48 a__35 a__41))) 0) (= (+ (* b__104 a__6 a__35 a__41 a__37) (* (- 0 1) (* a__6 a__35 a__41 a__37))) 0) (= (+ (* b__104 a__14 a__48 a__35 a__41) (* (- 0 1) (* a__14 a__48 a__35 a__41))) 0) (= (+ (* b__104 a__14 a__35 a__41 a__37) (* (- 0 1) (* a__14 a__35 a__41 a__37))) 0) (= (+ (* b__104 a__96 a__6 a__48 a__35 a__64) (* (- 0 1) (* a__96 a__6 a__48 a__35 a__64))) 0) (= (+ (* b__104 a__96 a__6 a__35 a__64 a__37) (* (- 0 1) (* a__96 a__6 a__35 a__64 a__37))) 0) (= (+ (* b__104 a__96 a__14 a__48 a__35 a__64) (* (- 0 1) (* a__96 a__14 a__48 a__35 a__64))) 0) (= (+ (* b__104 a__96 a__14 a__35 a__64 a__37) (* (- 0 1) (* a__96 a__14 a__35 a__64 a__37))) 0) (>= (+ 1 (* (- 0 1) b__105)) 0) (= (+ (* b__105 a__2 a__64) (* (- 0 1) (* a__2 a__64))) 0) (= (+ (* b__105 a__7 a__64) (* (- 0 1) (* a__7 a__64))) 0) (= (+ (* b__105 a__15 a__64) (* (- 0 1) (* a__15 a__64))) 0) (= (+ (* b__105 a__2 a__93 a__41) (* (- 0 1) (* a__2 a__93 a__41))) 0) (= (+ (* b__105 a__6 a__64 a__9) (* (- 0 1) (* a__6 a__64 a__9))) 0) (= (+ (* b__105 a__7 a__93 a__41) (* (- 0 1) (* a__7 a__93 a__41))) 0) (= (+ (* b__105 a__14 a__64 a__9) (* (- 0 1) (* a__14 a__64 a__9))) 0) (= (+ (* b__105 a__15 a__93 a__41) (* (- 0 1) (* a__15 a__93 a__41))) 0) (= (+ (* b__105 a__6 a__48 a__35 a__64) (* (- 0 1) (* a__6 a__48 a__35 a__64))) 0) (= (+ (* b__105 a__6 a__35 a__64 a__37) (* (- 0 1) (* a__6 a__35 a__64 a__37))) 0) (= (+ (* b__105 a__6 a__93 a__41 a__9) (* (- 0 1) (* a__6 a__93 a__41 a__9))) 0) (= (+ (* b__105 a__14 a__48 a__35 a__64) (* (- 0 1) (* a__14 a__48 a__35 a__64))) 0) (= (+ (* b__105 a__14 a__35 a__64 a__37) (* (- 0 1) (* a__14 a__35 a__64 a__37))) 0) (= (+ (* b__105 a__14 a__93 a__41 a__9) (* (- 0 1) (* a__14 a__93 a__41 a__9))) 0) (= (+ (* b__105 a__6 a__48 a__35 a__93 a__41) (* (- 0 1) (* a__6 a__48 a__35 a__93 a__41))) 0) (= (+ (* b__105 a__6 a__35 a__93 a__41 a__37) (* (- 0 1) (* a__6 a__35 a__93 a__41 a__37))) 0) (= (+ (* b__105 a__14 a__48 a__35 a__93 a__41) (* (- 0 1) (* a__14 a__48 a__35 a__93 a__41))) 0) (= (+ (* b__105 a__14 a__35 a__93 a__41 a__37) (* (- 0 1) (* a__14 a__35 a__93 a__41 a__37))) 0) (>= (+ (* a__4 a__2) (* (- 0 1) (* a__11 a__9 a__6)) (* (- 0 1) (* a__11 a__7))) 0) (>= (+ a__7 (* (- 0 1) (* a__11 a__9 a__14)) (* (- 0 1) (* a__11 a__15))) 0) (>= (+ a__15 (* (- 0 1) (* a__11 a__2))) 0) (>= (+ (* b__101 a__10) (* b__101 a__16 a__11) (* (- 0 1) (* b__101 a__17))) 0) (>= (+ (* b__101 a__10) (* b__101 a__18 a__11) (* (- 0 1) (* b__101 a__19))) 0) (>= (+ (* b__101 a__10) (* b__101 a__20 a__11) (* (- 0 1) (* b__101 a__22)) (* (- 0 1) (* b__101 a__10 a__23))) 0) (>= (+ (* b__101 a__21 a__11) (* (- 0 1) (* b__101 a__11 a__23))) 0) (>= (+ (* b__101 a__10) (* b__101 a__3 a__11) (* (- 0 1) (* b__101 a__24)) (* (- 0 1) (* b__101 a__10 a__25))) 0) (>= (+ (* b__101 a__4 a__11) (* (- 0 1) (* b__101 a__11 a__25))) 0) (>= (+ (* b__101 a__10) (* b__101 a__26 a__11) (* (- 0 1) (* b__101 a__29)) (* (- 0 1) (* b__101 a__10 a__30))) 0) (>= (+ (* b__101 a__27 a__11) (* (- 0 1) (* b__101 a__11 a__30))) 0) (>= (+ (* b__101 a__28 a__11) (* (- 0 1) (* b__101 a__31))) 0) (>= (+ (* b__101 a__10) (* b__101 a__32 a__11) (* (- 0 1) (* b__101 a__33))) 0) (>= (+ (* b__101 a__11) (* (- 0 1) b__101)) 0) (>= (+ (* b__102 a__8) (* b__102 a__18 a__9) (* (- 0 1) (* b__102 a__12))) 0) (>= (+ (* b__102 a__8) (* b__102 a__20 a__9) (* (- 0 1) (* b__102 a__34)) (* (- 0 1) (* b__102 a__36 a__35)) (* (- 0 1) (* b__102 a__10 a__37 a__35))) 0) (>= (+ (* b__102 a__21 a__9) (* (- 0 1) (* b__102 a__11 a__37 a__35))) 0) (>= (+ (* b__102 a__8) (* b__102 a__3 a__9) (* (- 0 1) (* b__102 a__38)) (* (- 0 1) (* b__102 a__8 a__39)) (* (- 0 1) (* b__102 a__10 a__9 a__39))) 0) (>= (+ (* b__102 a__4 a__9) (* (- 0 1) (* b__102 a__11 a__9 a__39))) 0) (>= (+ (* b__101 a__22) (* b__101 a__29 a__23) (* (- 0 1) (* b__101 a__40)) (* (- 0 1) (* b__101 a__44 a__41)) (* (- 0 1) (* b__101 a__10 a__45 a__41)) (* (- 0 1) (* b__101 a__10 a__42))) 0) (>= (+ (* b__101 a__30 a__23) (* (- 0 1) (* b__101 a__43))) 0) (>= (+ (* b__101 a__31 a__23) (* (- 0 1) (* b__101 a__11 a__45 a__41)) (* (- 0 1) (* b__101 a__11 a__42))) 0) (>= (+ (* b__103 a__36) (* b__103 a__26 a__37) (* (- 0 1) (* b__103 a__46)) (* (- 0 1) (* b__103 a__8 a__47)) (* (- 0 1) (* b__103 a__10 a__9 a__47)) (* (- 0 1) (* b__103 a__10 a__48))) 0) (>= (+ (* b__103 a__27 a__37) (* (- 0 1) (* b__103 a__11 a__9 a__47))) 0) (>= (+ (* b__103 a__28 a__37) (* (- 0 1) (* b__103 a__11 a__48))) 0) (>= (+ (* b__104 a__44) (* b__104 a__26 a__45) (* (- 0 1) (* b__104 a__49)) (* (- 0 1) (* b__104 a__8 a__50)) (* (- 0 1) (* b__104 a__10 a__9 a__50)) (* (- 0 1) (* b__104 a__10 a__51)) (* (- 0 1) (* b__104 a__10 a__52))) 0) (>= (+ (* b__104 a__27 a__45) (* (- 0 1) (* b__104 a__11 a__9 a__50)) (* (- 0 1) (* b__104 a__11 a__51))) 0) (>= (+ (* b__104 a__28 a__45) (* (- 0 1) (* b__104 a__11 a__52))) 0) (>= (+ (* b__101 a__40) (* b__101 a__12 a__41) (* (- 0 1) (* b__101 a__53)) (* (- 0 1) (* b__101 a__36 a__54)) (* (- 0 1) (* b__101 a__10 a__37 a__54)) (* (- 0 1) (* b__101 a__10 a__55)) (* (- 0 1) (* b__101 a__10 a__56))) 0) (>= (+ (* b__101 a__42) (* (- 0 1) (* b__101 a__11 a__37 a__54)) (* (- 0 1) (* b__101 a__11 a__55))) 0) (>= (+ (* b__101 a__43) (* (- 0 1) (* b__101 a__11 a__56))) 0) (>= (+ (* b__103 a__46) (* b__103 a__12 a__47) (* (- 0 1) (* b__103 a__57)) (* (- 0 1) (* b__103 a__36 a__58)) (* (- 0 1) (* b__103 a__10 a__37 a__58))) 0) (>= (+ (* b__103 a__48) (* (- 0 1) (* b__103 a__11 a__37 a__58))) 0) (>= (+ (* b__104 a__49) (* b__104 a__12 a__50) (* (- 0 1) (* b__104 a__59)) (* (- 0 1) (* b__104 a__8 a__60)) (* (- 0 1) (* b__104 a__10 a__9 a__60)) (* (- 0 1) (* b__104 a__10 a__61)) (* (- 0 1) (* b__104 a__10 a__62))) 0) (>= (+ (* b__104 a__51) (* (- 0 1) (* b__104 a__11 a__9 a__60)) (* (- 0 1) (* b__104 a__11 a__61))) 0) (>= (+ (* b__104 a__52) (* (- 0 1) (* b__104 a__11 a__62))) 0) (>= (+ (* b__101 a__53) (* b__101 a__12 a__54) (* (- 0 1) (* b__101 a__63)) (* (- 0 1) (* b__101 a__67 a__64)) (* (- 0 1) (* b__101 a__10 a__68 a__64)) (* (- 0 1) (* b__101 a__10 a__65)) (* (- 0 1) (* b__101 a__10 a__66))) 0) (>= (+ (* b__101 a__55) (* (- 0 1) (* b__101 a__11 a__65))) 0) (>= (+ (* b__101 a__56) (* (- 0 1) (* b__101 a__11 a__68 a__64)) (* (- 0 1) (* b__101 a__11 a__66))) 0) (>= (+ (* b__104 a__59) (* b__104 a__12 a__60) (* (- 0 1) (* b__104 a__69)) (* (- 0 1) (* b__104 a__36 a__70)) (* (- 0 1) (* b__104 a__10 a__37 a__70)) (* (- 0 1) (* b__104 a__10 a__71)) (* (- 0 1) (* b__104 a__10 a__72))) 0) (>= (+ (* b__104 a__61) (* (- 0 1) (* b__104 a__11 a__71))) 0) (>= (+ (* b__104 a__62) (* (- 0 1) (* b__104 a__11 a__37 a__70)) (* (- 0 1) (* b__104 a__11 a__72))) 0) (>= (+ (* b__105 a__67) (* b__105 a__20 a__68) (* (- 0 1) (* b__105 a__73)) (* (- 0 1) (* b__105 a__36 a__74)) (* (- 0 1) (* b__105 a__10 a__37 a__74)) (* (- 0 1) (* b__105 a__10 a__75))) 0) (>= (+ (* b__105 a__21 a__68) (* (- 0 1) (* b__105 a__11 a__37 a__74)) (* (- 0 1) (* b__105 a__11 a__75))) 0) (>= (+ (* b__105 a__67) (* b__105 a__3 a__68) (* (- 0 1) (* b__105 a__76)) (* (- 0 1) (* b__105 a__8 a__77)) (* (- 0 1) (* b__105 a__10 a__9 a__77)) (* (- 0 1) (* b__105 a__10 a__78))) 0) (>= (+ (* b__105 a__4 a__68) (* (- 0 1) (* b__105 a__11 a__9 a__77)) (* (- 0 1) (* b__105 a__11 a__78))) 0) (>= (+ (* b__101 a__63) (* b__101 a__12 a__64) (* (- 0 1) (* b__101 a__79)) (* (- 0 1) (* b__101 a__8 a__80)) (* (- 0 1) (* b__101 a__10 a__9 a__80)) (* (- 0 1) (* b__101 a__10 a__81))) 0) (>= (+ (* b__101 a__65) (* (- 0 1) (* b__101 a__11 a__81))) 0) (>= (+ (* b__101 a__66) (* (- 0 1) (* b__101 a__11 a__9 a__80))) 0) (>= (+ (* b__104 a__69) (* b__104 a__12 a__70) (* (- 0 1) (* b__104 a__82)) (* (- 0 1) (* b__104 a__36 a__83)) (* (- 0 1) (* b__104 a__10 a__37 a__83)) (* (- 0 1) (* b__104 a__10 a__84)) (* (- 0 1) (* b__104 a__10 a__85))) 0) (>= (+ (* b__104 a__71) (* (- 0 1) (* b__104 a__11 a__84))) 0) (>= (+ (* b__104 a__72) (* (- 0 1) (* b__104 a__11 a__37 a__83)) (* (- 0 1) (* b__104 a__11 a__85))) 0) (>= (+ (* b__105 a__73) (* b__105 a__12 a__74) (* (- 0 1) (* b__105 a__86)) (* (- 0 1) (* b__105 a__36 a__87)) (* (- 0 1) (* b__105 a__10 a__37 a__87)) (* (- 0 1) (* b__105 a__10 a__88))) 0) (>= (+ (* b__105 a__75) (* (- 0 1) (* b__105 a__11 a__37 a__87)) (* (- 0 1) (* b__105 a__11 a__88))) 0) (>= (+ (* b__105 a__76) (* b__105 a__12 a__77) (* (- 0 1) (* b__105 a__89)) (* (- 0 1) (* b__105 a__8 a__90)) (* (- 0 1) (* b__105 a__10 a__9 a__90)) (* (- 0 1) (* b__105 a__10 a__91))) 0) (>= (+ (* b__105 a__78) (* (- 0 1) (* b__105 a__11 a__9 a__90)) (* (- 0 1) (* b__105 a__11 a__91))) 0) (>= (+ (* b__101 a__79) (* b__101 a__12 a__80) (* (- 0 1) (* b__101 a__24)) (* (- 0 1) (* b__101 a__22 a__25)) (* (- 0 1) (* b__101 a__10 a__23 a__25))) 0) (>= (+ (* b__101 a__81) (* (- 0 1) (* b__101 a__11 a__23 a__25))) 0) (>= (+ (* b__104 a__82) (* b__104 a__12 a__83) (* (- 0 1) (* b__104 a__92)) (* (- 0 1) (* b__104 a__67 a__93)) (* (- 0 1) (* b__104 a__10 a__68 a__93)) (* (- 0 1) (* b__104 a__10 a__94))) 0) (>= (+ (* b__104 a__84) (* (- 0 1) (* b__104 a__11 a__68 a__93))) 0) (>= (+ (* b__104 a__85) (* (- 0 1) (* b__104 a__11 a__94))) 0) (>= (+ (* b__105 a__86) (* b__105 a__12 a__87) (* (- 0 1) (* b__105 a__95)) (* (- 0 1) (* b__105 a__44 a__96)) (* (- 0 1) (* b__105 a__10 a__45 a__96))) 0) (>= (+ (* b__105 a__88) (* (- 0 1) (* b__105 a__11 a__45 a__96))) 0) (>= (+ (* b__105 a__89) (* b__105 a__12 a__90) (* (- 0 1) (* b__105 a__97)) (* (- 0 1) (* b__105 a__67 a__98)) (* (- 0 1) (* b__105 a__10 a__68 a__98))) 0) (>= (+ (* b__105 a__91) (* (- 0 1) (* b__105 a__11 a__68 a__98))) 0) (>= (+ (* b__104 a__92) (* b__104 a__12 a__93) (* (- 0 1) (* b__104 a__99)) (* (- 0 1) (* b__104 a__44 a__100)) (* (- 0 1) (* b__104 a__10 a__45 a__100))) 0) (>= (+ (* b__104 a__94) (* (- 0 1) (* b__104 a__11 a__45 a__100))) 0) (>= (+ (* b__101 a__22) (* b__101 a__33 a__23) (* (- 0 1) (* b__101 a__19))) 0) (>= (+ (* b__101 a__22) (* (- 0 1) (* b__101 a__20))) 0) (>= (+ (* b__101 a__23) (* (- 0 1) (* b__101 a__21))) 0) (>= (+ (* b__101 a__24) (* (- 0 1) (* b__101 a__3))) 0) (>= (+ (* b__101 a__25) (* (- 0 1) (* b__101 a__4))) 0) (>= (+ (* b__101 a__29) (* (- 0 1) (* b__101 a__26))) 0) (>= (+ (* b__101 a__30) (* (- 0 1) (* b__101 a__27))) 0) (>= (+ (* b__101 a__31) (* (- 0 1) (* b__101 a__28))) 0) (>= (+ (* b__104 a__44) (* b__104 a__32 a__45) (* (- 0 1) (* b__104 a__12))) 0) (>= (+ (* b__103 a__36) (* b__103 a__32 a__37) (* (- 0 1) (* b__103 a__12))) 0) (>= (+ (* b__103 a__36) (* b__103 a__16 a__37) (* (- 0 1) (* b__103 a__12))) 0) (>= (+ (* b__102 a__34) (* b__102 a__12 a__35) (* (- 0 1) (* b__102 a__12))) 0) (>= (+ (* b__102 a__38) (* b__102 a__12 a__39) (* (- 0 1) (* b__102 a__12))) 0) (>= (+ (* b__103 a__57) (* b__103 a__12 a__58) (* (- 0 1) (* b__103 a__12))) 0) (>= (+ (* b__105 a__67) (* b__105 a__18 a__68) (* (- 0 1) (* b__105 a__12))) 0) (>= (+ (* b__105 a__95) (* b__105 a__12 a__96) (* (- 0 1) (* b__105 a__12))) 0) (>= (+ (* b__105 a__97) (* b__105 a__12 a__98) (* (- 0 1) (* b__105 a__12))) 0) (>= (+ (* b__104 a__99) (* b__104 a__12 a__100) (* (- 0 1) (* b__104 a__12))) 0) (>= (+ (* b__101 a__17) (* (- 0 1) (* b__101 a__29)) (* (- 0 1) (* b__101 a__19 a__30)) (* (- 0 1) (* b__101 a__16 a__31))) 0) (>= (+ (* b__101 a__17) (* (- 0 1) (* b__101 a__16))) 0) (>= (+ (* b__101 a__19) (* (- 0 1) (* b__101 a__18))) 0) (>= (+ (* b__101 a__33) (* (- 0 1) (* b__101 a__32))) 0) (>= (+ a__1 (* a__3 a__2) (* (- 0 1) a__5) (* (- 0 1) (* a__8 a__6)) (* (- 0 1) (* a__10 a__9 a__6)) (* (- 0 1) (* a__10 a__7))) 0) (>= (+ a__5 (* a__12 a__6) (* (- 0 1) a__13) (* (- 0 1) (* a__8 a__14)) (* (- 0 1) (* a__10 a__9 a__14)) (* (- 0 1) (* a__10 a__15))) 0) (>= (+ a__13 (* a__12 a__14) (* (- 0 1) a__1) (* (- 0 1) (* a__10 a__2))) 0) (not (and (= (+ a__1 (* a__3 a__2) (* (- 0 1) a__5) (* (- 0 1) (* a__8 a__6)) (* (- 0 1) (* a__10 a__9 a__6)) (* (- 0 1) (* a__10 a__7))) 0) (= (+ a__5 (* a__12 a__6) (* (- 0 1) a__13) (* (- 0 1) (* a__8 a__14)) (* (- 0 1) (* a__10 a__9 a__14)) (* (- 0 1) (* a__10 a__15))) 0) (= (+ a__13 (* a__12 a__14) (* (- 0 1) a__1) (* (- 0 1) (* a__10 a__2))) 0))) (>= b__101 0) (>= 1 b__101) (>= a__2 0) (>= a__7 0) (>= a__15 0) (>= a__6 0) (>= a__9 0) (>= a__14 0) (>= a__48 0) (>= a__35 0) (>= a__37 0) (>= b__102 0) (>= 1 b__102) (>= a__80 0) (>= a__77 0) (>= a__64 0) (>= a__90 0) (>= a__47 0) (>= a__54 0) (>= a__50 0) (>= a__41 0) (>= a__60 0) (>= a__74 0) (>= a__87 0) (>= a__96 0) (>= a__93 0) (>= a__70 0) (>= a__83 0) (>= b__103 0) (>= 1 b__103) (>= b__104 0) (>= 1 b__104) (>= b__105 0) (>= 1 b__105) (>= a__4 0) (>= a__11 0) (>= a__10 0) (>= a__16 0) (>= a__17 0) (>= a__18 0) (>= a__19 0) (>= a__20 0) (>= a__22 0) (>= a__23 0) (>= a__21 0) (>= a__3 0) (>= a__24 0) (>= a__25 0) (>= a__26 0) (>= a__29 0) (>= a__30 0) (>= a__27 0) (>= a__28 0) (>= a__31 0) (>= a__32 0) (>= a__33 0) (>= a__8 0) (>= a__12 0) (>= a__34 0) (>= a__36 0) (>= a__38 0) (>= a__39 0) (>= a__40 0) (>= a__44 0) (>= a__45 0) (>= a__42 0) (>= a__43 0) (>= a__46 0) (>= a__49 0) (>= a__51 0) (>= a__52 0) (>= a__53 0) (>= a__55 0) (>= a__56 0) (>= a__57 0) (>= a__58 0) (>= a__59 0) (>= a__61 0) (>= a__62 0) (>= a__63 0) (>= a__67 0) (>= a__68 0) (>= a__65 0) (>= a__66 0) (>= a__69 0) (>= a__71 0) (>= a__72 0) (>= a__73 0) (>= a__75 0) (>= a__76 0) (>= a__78 0) (>= a__79 0) (>= a__81 0) (>= a__82 0) (>= a__84 0) (>= a__85 0) (>= a__86 0) (>= a__88 0) (>= a__89 0) (>= a__91 0) (>= a__92 0) (>= a__94 0) (>= a__95 0) (>= a__97 0) (>= a__98 0) (>= a__99 0) (>= a__100 0) (>= a__1 0) (>= a__5 0) (>= a__13 0)))
(check-sat)
;;(get-assignment)
;;(get-model)
(exit)
